c FILE: i080-213

c SOURCE: From steinlib

c DESCRIPTION: Steinlib instance with 80 nodes and 350 edges.

p edge 80 350
e 1 7
e 1 9
e 1 10
e 1 13
e 1 14
e 1 24
e 1 25
e 1 27
e 1 32
e 1 43
e 1 44
e 1 45
e 1 63
e 1 72
e 1 73
e 1 75
e 1 77
e 2 7
e 2 16
e 2 24
e 2 25
e 2 39
e 2 47
e 2 52
e 2 53
e 2 75
e 3 19
e 3 22
e 3 27
e 3 48
e 3 49
e 3 65
e 3 69
e 4 43
e 4 48
e 4 49
e 4 56
e 4 61
e 5 13
e 5 24
e 5 25
e 5 30
e 5 32
e 5 66
e 5 77
e 6 10
e 6 12
e 6 27
e 6 30
e 6 33
e 6 35
e 6 51
e 7 8
e 7 15
e 7 20
e 7 42
e 7 43
e 7 48
e 7 56
e 7 60
e 8 20
e 8 30
e 8 36
e 8 39
e 8 41
e 8 44
e 8 47
e 8 61
e 8 73
e 8 74
e 8 79
e 9 22
e 9 40
e 9 42
e 9 46
e 9 47
e 9 56
e 9 72
e 10 14
e 10 18
e 10 20
e 10 35
e 10 48
e 10 57
e 10 72
e 11 13
e 11 17
e 11 26
e 11 29
e 11 38
e 11 58
e 12 35
e 12 37
e 12 44
e 12 48
e 12 53
e 12 66
e 12 69
e 13 27
e 13 47
e 13 53
e 13 54
e 13 66
e 13 69
e 13 73
e 14 27
e 14 35
e 14 54
e 14 58
e 14 74
e 14 75
e 14 76
e 15 19
e 15 21
e 15 31
e 15 36
e 15 57
e 15 68
e 15 72
e 15 79
e 16 17
e 16 19
e 16 43
e 16 45
e 16 58
e 16 60
e 16 62
e 16 63
e 16 68
e 16 73
e 16 77
e 17 27
e 17 53
e 17 59
e 18 20
e 18 32
e 18 45
e 18 51
e 18 65
e 18 68
e 19 28
e 19 34
e 19 36
e 19 38
e 19 50
e 19 52
e 20 53
e 20 63
e 20 65
e 21 29
e 21 31
e 21 36
e 21 50
e 21 55
e 21 67
e 21 76
e 22 24
e 22 25
e 22 32
e 22 38
e 22 41
e 22 42
e 22 55
e 22 68
e 23 48
e 23 76
e 23 80
e 24 40
e 24 64
e 24 71
e 24 75
e 24 77
e 25 31
e 25 34
e 25 47
e 25 55
e 25 60
e 25 62
e 25 69
e 26 39
e 26 46
e 26 49
e 26 53
e 26 61
e 26 64
e 26 65
e 26 72
e 27 38
e 27 40
e 27 42
e 27 49
e 27 52
e 27 58
e 27 70
e 28 35
e 28 36
e 28 38
e 28 47
e 28 60
e 28 69
e 28 75
e 28 77
e 28 78
e 29 38
e 29 40
e 29 44
e 29 75
e 29 79
e 30 37
e 30 38
e 30 43
e 30 57
e 30 67
e 30 79
e 31 41
e 31 47
e 31 59
e 31 62
e 31 69
e 31 75
e 32 50
e 32 54
e 32 55
e 32 69
e 32 70
e 32 80
e 33 62
e 33 72
e 34 37
e 34 42
e 34 55
e 34 57
e 34 60
e 34 69
e 35 40
e 35 70
e 36 53
e 36 65
e 36 80
e 37 46
e 37 50
e 37 58
e 37 60
e 37 63
e 37 64
e 37 73
e 38 41
e 38 46
e 38 53
e 38 54
e 38 58
e 38 65
e 38 67
e 38 72
e 38 74
e 38 76
e 39 47
e 40 46
e 40 59
e 40 62
e 40 75
e 40 78
e 41 45
e 41 46
e 41 74
e 42 51
e 42 67
e 42 68
e 42 74
e 43 46
e 43 50
e 43 61
e 43 68
e 43 70
e 43 71
e 43 78
e 44 78
e 45 47
e 45 73
e 46 47
e 46 54
e 46 64
e 47 57
e 47 59
e 47 61
e 47 65
e 47 67
e 47 75
e 47 79
e 48 50
e 48 52
e 48 63
e 48 75
e 48 79
e 49 53
e 49 68
e 50 59
e 50 73
e 51 52
e 51 55
e 51 66
e 51 71
e 51 75
e 52 59
e 52 61
e 52 65
e 54 60
e 54 67
e 54 71
e 55 56
e 55 67
e 55 71
e 55 75
e 56 75
e 57 64
e 57 66
e 57 78
e 58 72
e 59 60
e 59 61
e 59 73
e 60 66
e 60 68
e 60 69
e 60 74
e 61 66
e 61 73
e 61 74
e 62 63
e 62 64
e 62 66
e 62 80
e 63 71
e 63 73
e 64 71
e 65 70
e 65 80
e 66 70
e 67 72
e 68 73
e 69 74
e 69 76
e 69 78
e 71 77
e 72 74
e 72 75
e 73 79
e 74 76
e 74 80
e 75 80
